nNurses = 128;
nHours = 39;
minHours = 9;
maxHours = 18;
maxConsec = 17;
maxPresence = 22;
demand = [32, 27, 32, 37, 35, 36, 32, 28, 31, 28, 26, 27, 28, 28, 24, 23, 28, 29, 26, 23, 27, 25, 24, 27, 28, 32, 30, 32, 31, 34, 36, 33, 30, 32, 27, 28, 26, 22, 18];
